SATISFIABLE
# Atoms: 31
# Actions: 80
Trying with 2 states
# Atoms: 31
# Actions: 80
Cumulated solver time: 0.003336
Trying with 3 states
# Atoms: 31
# Actions: 80
Cumulated solver time: 0.008215
Trying with 4 states
# Atoms: 31
# Actions: 80
Cumulated solver time: 0.017448
